
Gurobi 10.0.1 (linux64) logging started Sun Nov 26 15:51:28 2023

Set parameter LogFile to value "ArtificialInstance/ExperimentV2/S4T3K3/AdRo/gurobiDoRo16.txt"
Gurobi Optimizer version 10.0.1 build v10.0.1rc0 (linux64)

CPU model: AMD EPYC 7H12 64-Core Processor, instruction set [SSE2|AVX|AVX2]
Thread count: 128 physical cores, 128 logical processors, using up to 32 threads

Academic license 656792 - for non-commercial use only - registered to b.___@student.vu.nl
Optimize a model with 16154 rows, 15631 columns and 60574 nonzeros
Model fingerprint: 0xed98ec4f
Variable types: 1 continuous, 15630 integer (15630 binary)
Coefficient statistics:
  Matrix range     [1e+00, 4e+01]
  Objective range  [1e+00, 2e+01]
  Bounds range     [1e+00, 1e+00]
  RHS range        [1e+00, 1e+00]
Presolve removed 5771 rows and 5521 columns
Presolve time: 0.19s
Presolved: 10383 rows, 10110 columns, 39073 nonzeros
Variable types: 1 continuous, 10109 integer (10109 binary)

Root relaxation: objective 1.055361e+02, 3800 iterations, 0.21 seconds (0.15 work units)

    Nodes    |    Current Node    |     Objective Bounds      |     Work
 Expl Unexpl |  Obj  Depth IntInf | Incumbent    BestBd   Gap | It/Node Time

H    0     0                     105.5361198   64.15187  39.2%     -    0s
     0     0          -    0       105.53612  105.53612  0.00%     -    0s

Explored 1 nodes (5943 simplex iterations) in 0.51 seconds (0.36 work units)
Thread count was 32 (of 128 available processors)

Solution count 1: 105.536 

Optimal solution found (tolerance 1.00e-04)
Best objective 1.055361198109e+02, best bound 1.055361198109e+02, gap 0.0000%
